C2
1.0
1.2320971008984494 -2.1340542301747005 0.0
1.2320971008984494 2.1340542301747005 0.0
0.0 0.0 30.803073
C
2
Cartesian
0.0 0.0 1.9507584231000183
1.2321 0.7113514226999862 1.9507584231000183

